Instance: E076-14s.dat
Class:  1
75 --- number of customers (no depot)
14 --- number of vehicles
112 --- number of items
Capacity - height - width of vehicles
   100     40     20
Node - x - y - demand  Readytime Duetime
  0.00   40.00  40.00   0.00 0       256.00       
  1.00   22.00  22.00  18.00 176.00  185.00       
  2.00   36.00  26.00  26.00  34.00   43.00       
  3.00   21.00  45.00  11.00 154.00  166.00       
  4.00   45.00  35.00  30.00 108.00  115.00       
  5.00   55.00  20.00  21.00 149.00  167.00       
  6.00   33.00  34.00  19.00  59.00   67.00       
  7.00   50.00  50.00  15.00 106.00  116.00       
  8.00   55.00  45.00  16.00  76.00   85.00       
  9.00   26.00  59.00  29.00  12.00   43.00       
 10.00   40.00  66.00  26.00  43.00   63.00       
 11.00   55.00  65.00  37.00 132.00  146.00       
 12.00   35.00  51.00  16.00  91.00   99.00       
 13.00   62.00  35.00  12.00 104.00  124.00       
 14.00   62.00  57.00  31.00 165.00  184.00       
 15.00   62.00  24.00   8.00  19.00   43.00       
 16.00   21.00  36.00  19.00 117.00  124.00       
 17.00   33.00  44.00  20.00 166.00  171.00       
 18.00    9.00  56.00  13.00 120.00  140.00       
 19.00   62.00  48.00  15.00 140.00  154.00       
 20.00   66.00  14.00  22.00 101.00  118.00       
 21.00   44.00  13.00  28.00 158.00  171.00       
 22.00   26.00  13.00  12.00   8.00   43.00       
 23.00   11.00  28.00   6.00  47.00   67.00       
 24.00    7.00  43.00  27.00  48.00   64.00       
 25.00   17.00  64.00  14.00 108.00  117.00       
 26.00   41.00  46.00  18.00 134.00  149.00       
 27.00   55.00  34.00  17.00  71.00   83.00       
 28.00   35.00  16.00  29.00  21.00   43.00       
 29.00   52.00  26.00  13.00 112.00  123.00       
 30.00   43.00  26.00  22.00  56.00   61.00       
 31.00   31.00  76.00  25.00 163.00  172.00       
 32.00   22.00  53.00  28.00  38.00   53.00       
 33.00   26.00  29.00  27.00 127.00  140.00       
 34.00   50.00  40.00  19.00  63.00   70.00       
 35.00   55.00  50.00  10.00  94.00  103.00       
 36.00   54.00  10.00  12.00  54.00   60.00       
 37.00   60.00  15.00  14.00  92.00  108.00       
 38.00   47.00  66.00  24.00 106.00  114.00       
 39.00   30.00  60.00  16.00 159.00  177.00       
 40.00   30.00  50.00  33.00  91.00  106.00       
 41.00   12.00  17.00  15.00  21.00   43.00       
 42.00   15.00  14.00  11.00 138.00  143.00       
 43.00   16.00  19.00  18.00  46.00   63.00       
 44.00   21.00  48.00  17.00 132.00  137.00       
 45.00   50.00  30.00  21.00 132.00  143.00       
 46.00   51.00  42.00  27.00 168.00  175.00       
 47.00   50.00  15.00  19.00  41.00   49.00       
 48.00   48.00  21.00  20.00  90.00   97.00       
 49.00   12.00  38.00   5.00 167.00  173.00       
 50.00   15.00  56.00  22.00  16.00   43.00       
 51.00   29.00  39.00  12.00  61.00   66.00       
 52.00   54.00  38.00  19.00  33.00   43.00       
 53.00   55.00  57.00  22.00  17.00   43.00       
 54.00   67.00  41.00  16.00  57.00   69.00       
 55.00   10.00  70.00   7.00 120.00  129.00       
 56.00    6.00  25.00  26.00  61.00   80.00       
 57.00   65.00  27.00  14.00 108.00  113.00       
 58.00   40.00  60.00  21.00 116.00  125.00       
 59.00   70.00  64.00  24.00  37.00   44.00       
 60.00   64.00   4.00  13.00  37.00   46.00       
 61.00   36.00   6.00  15.00 123.00  130.00       
 62.00   30.00  20.00  18.00  89.00   98.00       
 63.00   20.00  30.00  11.00  30.00   43.00       
 64.00   15.00   5.00  28.00  88.00  108.00       
 65.00   50.00  70.00   9.00 119.00  130.00       
 66.00   57.00  72.00  37.00  50.00   60.00       
 67.00   45.00  42.00  30.00 152.00  159.00       
 68.00   38.00  33.00  10.00 105.00  110.00       
 69.00   50.00   4.00   8.00  22.00   43.00       
 70.00   66.00   8.00  11.00  40.00   45.00       
 71.00   59.00   5.00   3.00  81.00   87.00       
 72.00   35.00  60.00   1.00  47.00   65.00       
 73.00   27.00  24.00   6.00 131.00  147.00       
 74.00   40.00  20.00  10.00 161.00  178.00       
 75.00   40.00  37.00  20.00  42.00   51.00 
Node - number of items - h - w for each item
    0   0
    1   1    9   10
    2   1   17    2
    3   1   10    4
    4   2   13    5   25    3
    5   2    6   10   34    3
    6   1   19    8
    7   2   25    3   26    2
    8   2   10    4   26    3
    9   2    7   10   27    3
   10   2    8   17   20    3
   11   2    6   12   10    4
   12   2    8    9   17    3
   13   1   25    3
   14   2    5   16   13    5
   15   1    6   18
   16   1    5    9
   17   2    8   17    6   12
   18   1    6   10
   19   1    7   14
   20   1    4   11
   21   2    5   15   12    9
   22   1   22    2
   23   1    7    9
   24   1   12    5
   25   2   10    6   35    4
   26   1   14    8
   27   1    9    8
   28   1    8   16
   29   1    6    9
   30   2    4   13    6    8
   31   1   34    4
   32   1   29    2
   33   1   14    8
   34   1    7    8
   35   2    7   11   30    2
   36   1    6   16
   37   1    8   11
   38   2   34    4   25    2
   39   2    7    9   20    6
   40   1   25    2
   41   2    5   10   15    9
   42   2    8    9   36    3
   43   1    6   11
   44   2    7   14   18    7
   45   2   24    4   29    3
   46   1   13    8
   47   1   15    7
   48   2    6   14   34    3
   49   2    7   18   32    3
   50   1   25    3
   51   1    6   17
   52   1    5   16
   53   1    7   18
   54   2   19   10   27    2
   55   2    7   15   23    3
   56   2    6   18    6    8
   57   1   26    4
   58   1   30    3
   59   1   22    3
   60   1   17    6
   61   2    6   18    7   10
   62   2    7   17   22    3
   63   1   16    3
   64   2   11    5   28    3
   65   2   15    8   19    3
   66   2   19    8   35    4
   67   2   17   10   10    8
   68   2   35    4   26    3
   69   1   11    6
   70   2   19    7   12    5
   71   2    7   16   16    9
   72   2    4   17    9   10
   73   2    9    9   13    5
   74   1    6    8
   75   2   23    4   21    2
